(benchmark random_random84_smt
:extrafuns ((x0 BitVec[24]))
:extrafuns ((x1 BitVec[24]))
:extrafuns ((x2 BitVec[24]))
:extrafuns ((x3 BitVec[24]))
:extrafuns ((x4 BitVec[24]))
:extrafuns ((x5 BitVec[24]))
:extrafuns ((x6 BitVec[24]))
:extrafuns ((x7 BitVec[24]))
:extrafuns ((x8 BitVec[24]))
:extrafuns ((x9 BitVec[24]))
:extrafuns ((x10 BitVec[24]))
:extrafuns ((x11 BitVec[24]))
:extrafuns ((x12 BitVec[24]))
:extrafuns ((x13 BitVec[24]))
:extrafuns ((x14 BitVec[24]))
:extrafuns ((x15 BitVec[24]))
:extrafuns ((x16 BitVec[24]))
:extrafuns ((x17 BitVec[24]))
:extrafuns ((x18 BitVec[24]))
:extrafuns ((x19 BitVec[24]))


:formula (and (not (= (bvadd (bvmul bv14694365[24] x0) 
                        (bvadd (bvmul bv7785871[24] x1) 
                        (bvadd (bvmul bv2828642[24] x2) 
                        (bvadd (bvmul bv15024759[24] x3) 
                        (bvadd (bvmul bv14668310[24] x4) 
                        (bvadd (bvmul bv461618[24] x9) 
                        (bvadd (bvmul bv11675687[24] x10) 
                        (bvadd (bvmul bv4080628[24] x11) 
                        (bvadd (bvmul bv15776370[24] x14) 
                        (bvadd (bvmul bv16290462[24] x16) 
                        (bvadd (bvmul bv2327221[24] x17) (bvmul bv13724162[24] x19))))))))))))
	              bv1603911[24]))
         (and (not (= (bvadd (bvmul bv9974828[24] x2) 
                        (bvadd (bvmul bv3163621[24] x4) 
                        (bvadd (bvmul bv4029477[24] x6) 
                        (bvadd (bvmul bv2840679[24] x12) 
                        (bvadd (bvmul bv1978788[24] x16) (bvmul bv13198071[24] x17))))))
	              bv15525293[24]))
         (and (not (= (bvadd (bvmul bv12472241[24] x1) 
                        (bvadd (bvmul bv2656676[24] x6) 
                        (bvadd (bvmul bv1983815[24] x7) 
                        (bvadd (bvmul bv6013292[24] x9) 
                        (bvadd (bvmul bv11048267[24] x12) 
                        (bvadd (bvmul bv13888947[24] x14) 
                        (bvadd (bvmul bv1132462[24] x16) (bvmul bv10104706[24] x18))))))))
	              bv14963326[24]))
         (and (not (= (bvadd (bvmul bv16724132[24] x0) 
                        (bvadd (bvmul bv12419159[24] x2) 
                        (bvadd (bvmul bv608388[24] x3) 
                        (bvadd (bvmul bv10849556[24] x4) 
                        (bvadd (bvmul bv15503681[24] x5) 
                        (bvadd (bvmul bv7425689[24] x9) 
                        (bvadd (bvmul bv462318[24] x11) 
                        (bvadd (bvmul bv8975188[24] x13) 
                        (bvadd (bvmul bv2445080[24] x14) (bvmul bv8421902[24] x19))))))))))
	              bv15347876[24]))
         (and (bvule      (bvadd (bvmul bv2908260[24] x5) 
                        (bvadd (bvmul bv9873801[24] x9) 
                        (bvadd (bvmul bv8494785[24] x13) 
                        (bvadd (bvmul bv10950533[24] x15) (bvmul bv3093414[24] x18)))))
	              bv11217956[24])
         (and (bvule      (bvadd (bvmul bv7910246[24] x0) 
                        (bvadd (bvmul bv10329984[24] x4) 
                        (bvadd (bvmul bv14859324[24] x5) 
                        (bvadd (bvmul bv3722442[24] x6) 
                        (bvadd (bvmul bv9877966[24] x8) 
                        (bvadd (bvmul bv2974553[24] x10) 
                        (bvadd (bvmul bv9310474[24] x12) 
                        (bvadd (bvmul bv13111414[24] x15) 
                        (bvadd (bvmul bv13133880[24] x16) (bvmul bv16227294[24] x18))))))))))
	              bv4388059[24])
         (and (bvule      (bvadd (bvmul bv15605363[24] x0) 
                        (bvadd (bvmul bv11727721[24] x1) 
                        (bvadd (bvmul bv3497798[24] x5) 
                        (bvadd (bvmul bv7815380[24] x10) 
                        (bvadd (bvmul bv13523278[24] x11) 
                        (bvadd (bvmul bv10477641[24] x12) 
                        (bvadd (bvmul bv15733627[24] x14) 
                        (bvadd (bvmul bv15162932[24] x16) 
                        (bvadd (bvmul bv12869620[24] x17) (bvmul bv3787522[24] x19))))))))))
	              bv12721096[24])
         (and (bvule      (bvadd (bvmul bv7569169[24] x5) 
                        (bvadd (bvmul bv10413195[24] x7) 
                        (bvadd (bvmul bv16092525[24] x10) 
                        (bvadd (bvmul bv7840535[24] x11) 
                        (bvadd (bvmul bv8131769[24] x12) (bvmul bv2004314[24] x19))))))
	              bv16513158[24])
         (and (bvule      (bvadd (bvmul bv3523466[24] x1) 
                        (bvadd (bvmul bv9202778[24] x5) 
                        (bvadd (bvmul bv2953145[24] x6) 
                        (bvadd (bvmul bv2159692[24] x7) 
                        (bvadd (bvmul bv7703493[24] x9) 
                        (bvadd (bvmul bv12372560[24] x13) 
                        (bvadd (bvmul bv5198089[24] x16) 
                        (bvadd (bvmul bv14410896[24] x17) 
                        (bvadd (bvmul bv15604314[24] x18) (bvmul bv11085184[24] x19))))))))))
	              bv15340258[24])
         (and (bvule      (bvadd (bvmul bv2086509[24] x1) 
                        (bvadd (bvmul bv10000777[24] x5) 
                        (bvadd (bvmul bv7671990[24] x8) 
                        (bvadd (bvmul bv5341450[24] x11) 
                        (bvadd (bvmul bv5690126[24] x16) 
                        (bvadd (bvmul bv873688[24] x18) (bvmul bv6198994[24] x19)))))))
	              bv16478002[24])
         (and (bvule      (bvadd (bvmul bv506963[24] x0) 
                        (bvadd (bvmul bv15550478[24] x1) 
                        (bvadd (bvmul bv350341[24] x2) 
                        (bvadd (bvmul bv8575988[24] x4) 
                        (bvadd (bvmul bv6325403[24] x7) 
                        (bvadd (bvmul bv4983061[24] x8) 
                        (bvadd (bvmul bv2034161[24] x9) 
                        (bvadd (bvmul bv10192411[24] x11) 
                        (bvadd (bvmul bv15589690[24] x12) 
                        (bvadd (bvmul bv1118438[24] x13) 
                        (bvadd (bvmul bv15013778[24] x15) 
                        (bvadd (bvmul bv4435557[24] x17) (bvmul bv4942521[24] x19)))))))))))))
	              bv3340909[24])
         (and (bvule      (bvadd (bvmul bv3691250[24] x1) 
                        (bvadd (bvmul bv11299459[24] x2) 
                        (bvadd (bvmul bv581301[24] x3) 
                        (bvadd (bvmul bv9578310[24] x4) 
                        (bvadd (bvmul bv14561372[24] x6) 
                        (bvadd (bvmul bv153978[24] x7) 
                        (bvadd (bvmul bv10346390[24] x9) 
                        (bvadd (bvmul bv11880087[24] x10) 
                        (bvadd (bvmul bv16382689[24] x12) 
                        (bvadd (bvmul bv4981764[24] x14) 
                        (bvadd (bvmul bv10058842[24] x16) 
                        (bvadd (bvmul bv2519756[24] x17) (bvmul bv951925[24] x18)))))))))))))
	              bv313787[24])
         (and (bvule      (bvadd (bvmul bv13152599[24] x0) 
                        (bvadd (bvmul bv14372525[24] x1) 
                        (bvadd (bvmul bv5382122[24] x2) 
                        (bvadd (bvmul bv3166279[24] x4) 
                        (bvadd (bvmul bv4531767[24] x6) 
                        (bvadd (bvmul bv4707454[24] x7) 
                        (bvadd (bvmul bv11600324[24] x8) 
                        (bvadd (bvmul bv10000772[24] x9) 
                        (bvadd (bvmul bv1019304[24] x10) 
                        (bvadd (bvmul bv3175466[24] x12) 
                        (bvadd (bvmul bv13731485[24] x14) 
                        (bvadd (bvmul bv5092582[24] x17) (bvmul bv1467966[24] x19)))))))))))))
	              bv2209326[24])
         (and (bvule      (bvadd (bvmul bv14332448[24] x0) 
                        (bvadd (bvmul bv8539532[24] x2) 
                        (bvadd (bvmul bv447370[24] x3) 
                        (bvadd (bvmul bv167607[24] x5) 
                        (bvadd (bvmul bv11767931[24] x7) 
                        (bvadd (bvmul bv5606863[24] x12) 
                        (bvadd (bvmul bv15076054[24] x14) 
                        (bvadd (bvmul bv4390567[24] x16) (bvmul bv13806130[24] x19)))))))))
	              bv3716407[24])
         (and (bvule      (bvadd (bvmul bv6321645[24] x0) 
                        (bvadd (bvmul bv14577369[24] x4) 
                        (bvadd (bvmul bv13089650[24] x6) 
                        (bvadd (bvmul bv15722084[24] x9) 
                        (bvadd (bvmul bv5141384[24] x11) 
                        (bvadd (bvmul bv9948604[24] x12) 
                        (bvadd (bvmul bv1139888[24] x13) 
                        (bvadd (bvmul bv5342404[24] x15) (bvmul bv7451116[24] x17)))))))))
	              bv4480031[24])
         (and (bvule      (bvadd (bvmul bv8257371[24] x2) 
                        (bvadd (bvmul bv1291330[24] x4) 
                        (bvadd (bvmul bv1616947[24] x7) 
                        (bvadd (bvmul bv4049203[24] x10) 
                        (bvadd (bvmul bv9190588[24] x12) 
                        (bvadd (bvmul bv12208709[24] x17) (bvmul bv8869150[24] x19)))))))
	              bv15189625[24])
         (and (bvule      (bvadd (bvmul bv16325673[24] x0) 
                        (bvadd (bvmul bv11304482[24] x4) 
                        (bvadd (bvmul bv11057756[24] x5) 
                        (bvadd (bvmul bv16042044[24] x6) 
                        (bvadd (bvmul bv9821698[24] x7) 
                        (bvadd (bvmul bv12419099[24] x10) 
                        (bvadd (bvmul bv2433763[24] x14) 
                        (bvadd (bvmul bv159257[24] x15) 
                        (bvadd (bvmul bv12568378[24] x18) (bvmul bv4459902[24] x19))))))))))
	              bv10980788[24])
         (and (bvule      (bvadd (bvmul bv4008360[24] x0) 
                        (bvadd (bvmul bv12286172[24] x1) 
                        (bvadd (bvmul bv6813439[24] x3) 
                        (bvadd (bvmul bv1348457[24] x9) 
                        (bvadd (bvmul bv5620721[24] x12) 
                        (bvadd (bvmul bv15981437[24] x16) 
                        (bvadd (bvmul bv2812631[24] x18) (bvmul bv10499053[24] x19))))))))
	              bv15990312[24])
         (and (bvule      (bvadd (bvmul bv6836628[24] x2) 
                        (bvadd (bvmul bv12588779[24] x5) 
                        (bvadd (bvmul bv15280014[24] x6) 
                        (bvadd (bvmul bv15746695[24] x8) 
                        (bvadd (bvmul bv317937[24] x10) 
                        (bvadd (bvmul bv14085493[24] x12) 
                        (bvadd (bvmul bv15894890[24] x16) (bvmul bv13825565[24] x18))))))))
	              bv11805164[24])
         (and (bvule      (bvadd (bvmul bv12250030[24] x2) 
                        (bvadd (bvmul bv4692846[24] x3) 
                        (bvadd (bvmul bv15095711[24] x4) 
                        (bvadd (bvmul bv9093052[24] x6) 
                        (bvadd (bvmul bv5722432[24] x8) 
                        (bvadd (bvmul bv12126124[24] x9) 
                        (bvadd (bvmul bv16561227[24] x10) 
                        (bvadd (bvmul bv13378158[24] x11) 
                        (bvadd (bvmul bv5809840[24] x12) 
                        (bvadd (bvmul bv16469024[24] x14) 
                        (bvadd (bvmul bv13128606[24] x16) (bvmul bv2670818[24] x17))))))))))))
	              bv5353254[24])
         (and (bvule      (bvadd (bvmul bv10705620[24] x2) 
                        (bvadd (bvmul bv14806345[24] x3) 
                        (bvadd (bvmul bv8935751[24] x4) 
                        (bvadd (bvmul bv2901017[24] x6) 
                        (bvadd (bvmul bv12662085[24] x7) 
                        (bvadd (bvmul bv10872947[24] x8) 
                        (bvadd (bvmul bv12796156[24] x9) 
                        (bvadd (bvmul bv1828782[24] x11) 
                        (bvadd (bvmul bv8083164[24] x12) 
                        (bvadd (bvmul bv7284645[24] x14) 
                        (bvadd (bvmul bv10611027[24] x15) 
                        (bvadd (bvmul bv6028539[24] x16) (bvmul bv12041313[24] x18)))))))))))))
	              bv15019352[24])
         (and (bvule      (bvadd (bvmul bv1891919[24] x2) 
                        (bvadd (bvmul bv3393451[24] x3) 
                        (bvadd (bvmul bv12881391[24] x4) 
                        (bvadd (bvmul bv10972800[24] x5) 
                        (bvadd (bvmul bv10333799[24] x6) 
                        (bvadd (bvmul bv8979043[24] x10) 
                        (bvadd (bvmul bv7486022[24] x11) 
                        (bvadd (bvmul bv6172153[24] x12) 
                        (bvadd (bvmul bv8371617[24] x13) 
                        (bvadd (bvmul bv171019[24] x16) (bvmul bv2140127[24] x18)))))))))))
	              bv15633974[24])
         (and (bvule      (bvadd (bvmul bv4387277[24] x3) 
                        (bvadd (bvmul bv9269301[24] x4) 
                        (bvadd (bvmul bv3623406[24] x6) 
                        (bvadd (bvmul bv16673877[24] x7) 
                        (bvadd (bvmul bv15212404[24] x8) 
                        (bvadd (bvmul bv2975495[24] x9) 
                        (bvadd (bvmul bv6785542[24] x10) 
                        (bvadd (bvmul bv15729521[24] x11) 
                        (bvadd (bvmul bv12727913[24] x14) 
                        (bvadd (bvmul bv2431118[24] x16) 
                        (bvadd (bvmul bv1269420[24] x17) (bvmul bv4454170[24] x19))))))))))))
	              bv8147503[24])
         (and (bvule      (bvadd (bvmul bv842080[24] x0) 
                        (bvadd (bvmul bv11021562[24] x1) 
                        (bvadd (bvmul bv16382911[24] x2) 
                        (bvadd (bvmul bv13787625[24] x4) 
                        (bvadd (bvmul bv3472723[24] x7) 
                        (bvadd (bvmul bv5002967[24] x8) 
                        (bvadd (bvmul bv7404651[24] x9) 
                        (bvadd (bvmul bv12474184[24] x11) 
                        (bvadd (bvmul bv15166660[24] x13) (bvmul bv10746176[24] x15))))))))))
	              bv11943045[24])
         (and (bvule      (bvadd (bvmul bv7700611[24] x1) 
                        (bvadd (bvmul bv1942679[24] x2) 
                        (bvadd (bvmul bv15677467[24] x4) 
                        (bvadd (bvmul bv6534220[24] x8) 
                        (bvadd (bvmul bv15052534[24] x13) 
                        (bvadd (bvmul bv9263280[24] x15) 
                        (bvadd (bvmul bv5905144[24] x17) 
                        (bvadd (bvmul bv211994[24] x18) (bvmul bv1203492[24] x19)))))))))
	              bv7978426[24])
         (and (bvule      (bvadd (bvmul bv12567127[24] x2) 
                        (bvadd (bvmul bv1752402[24] x3) 
                        (bvadd (bvmul bv652655[24] x5) 
                        (bvadd (bvmul bv7284148[24] x7) 
                        (bvadd (bvmul bv4681934[24] x11) 
                        (bvadd (bvmul bv3883888[24] x12) 
                        (bvadd (bvmul bv12220533[24] x15) 
                        (bvadd (bvmul bv1348463[24] x17) (bvmul bv11049148[24] x19)))))))))
	              bv1972860[24])
         (and (bvule      (bvadd (bvmul bv3543758[24] x1) 
                        (bvadd (bvmul bv16503623[24] x3) 
                        (bvadd (bvmul bv11574568[24] x5) 
                        (bvadd (bvmul bv13329866[24] x8) 
                        (bvadd (bvmul bv14373671[24] x9) 
                        (bvadd (bvmul bv5235644[24] x14) 
                        (bvadd (bvmul bv678963[24] x16) 
                        (bvadd (bvmul bv6041294[24] x17) (bvmul bv1893804[24] x19)))))))))
	              bv13076575[24])
         (and (bvule      (bvadd (bvmul bv5724740[24] x0) 
                        (bvadd (bvmul bv384770[24] x1) 
                        (bvadd (bvmul bv7143387[24] x2) 
                        (bvadd (bvmul bv5167971[24] x4) 
                        (bvadd (bvmul bv4026964[24] x5) 
                        (bvadd (bvmul bv4615541[24] x6) 
                        (bvadd (bvmul bv4490387[24] x11) 
                        (bvadd (bvmul bv9099950[24] x12) 
                        (bvadd (bvmul bv14536525[24] x13) 
                        (bvadd (bvmul bv8635308[24] x15) 
                        (bvadd (bvmul bv12432421[24] x16) (bvmul bv8731781[24] x18))))))))))))
	              bv16383353[24])
         (and (bvule      (bvadd (bvmul bv11312979[24] x2) 
                        (bvadd (bvmul bv12526168[24] x5) 
                        (bvadd (bvmul bv10309230[24] x6) 
                        (bvadd (bvmul bv16750289[24] x8) 
                        (bvadd (bvmul bv14190243[24] x10) 
                        (bvadd (bvmul bv10420693[24] x16) (bvmul bv1224087[24] x17)))))))
	              bv11882700[24])
         (and (bvule      (bvadd (bvmul bv1633768[24] x0) 
                        (bvadd (bvmul bv2200056[24] x1) 
                        (bvadd (bvmul bv3203431[24] x4) 
                        (bvadd (bvmul bv13216771[24] x5) 
                        (bvadd (bvmul bv4838480[24] x6) 
                        (bvadd (bvmul bv16397845[24] x8) 
                        (bvadd (bvmul bv4134889[24] x11) 
                        (bvadd (bvmul bv7548642[24] x12) 
                        (bvadd (bvmul bv8975953[24] x13) 
                        (bvadd (bvmul bv3107146[24] x14) 
                        (bvadd (bvmul bv4331233[24] x16) 
                        (bvadd (bvmul bv12551518[24] x17) 
                        (bvadd (bvmul bv6725796[24] x18) (bvmul bv10925556[24] x19))))))))))))))
	              bv8925853[24])
         (and (bvule      (bvadd (bvmul bv14608717[24] x0) 
                        (bvadd (bvmul bv2101231[24] x3) 
                        (bvadd (bvmul bv8850017[24] x5) 
                        (bvadd (bvmul bv15571879[24] x7) 
                        (bvadd (bvmul bv2929553[24] x9) 
                        (bvadd (bvmul bv3078196[24] x10) 
                        (bvadd (bvmul bv4296149[24] x11) 
                        (bvadd (bvmul bv16684567[24] x12) 
                        (bvadd (bvmul bv4238586[24] x14) 
                        (bvadd (bvmul bv6813892[24] x15) (bvmul bv14485348[24] x19)))))))))))
	              bv3993046[24])
         (and (bvule      (bvadd (bvmul bv3369808[24] x0) 
                        (bvadd (bvmul bv651310[24] x4) 
                        (bvadd (bvmul bv10138239[24] x5) 
                        (bvadd (bvmul bv13115721[24] x6) 
                        (bvadd (bvmul bv9107422[24] x7) 
                        (bvadd (bvmul bv8595591[24] x8) 
                        (bvadd (bvmul bv12845481[24] x9) 
                        (bvadd (bvmul bv11962987[24] x10) 
                        (bvadd (bvmul bv3030108[24] x11) (bvmul bv3889509[24] x15))))))))))
	              bv4477050[24])
         (and (bvule      (bvadd (bvmul bv8501243[24] x0) 
                        (bvadd (bvmul bv1490901[24] x1) 
                        (bvadd (bvmul bv3561853[24] x2) 
                        (bvadd (bvmul bv13700093[24] x4) 
                        (bvadd (bvmul bv7854632[24] x5) 
                        (bvadd (bvmul bv8050289[24] x6) 
                        (bvadd (bvmul bv15421680[24] x11) 
                        (bvadd (bvmul bv1161284[24] x12) 
                        (bvadd (bvmul bv3025091[24] x14) 
                        (bvadd (bvmul bv1615870[24] x17) (bvmul bv6092920[24] x19)))))))))))
	              bv2351755[24])
         (and (bvule      (bvadd (bvmul bv1245048[24] x6) 
                        (bvadd (bvmul bv12978024[24] x9) 
                        (bvadd (bvmul bv13459972[24] x10) 
                        (bvadd (bvmul bv628904[24] x11) 
                        (bvadd (bvmul bv15081183[24] x12) 
                        (bvadd (bvmul bv12752434[24] x13) 
                        (bvadd (bvmul bv15777525[24] x15) (bvmul bv5921533[24] x18))))))))
	              bv8251314[24])
         (and (bvule      (bvadd (bvmul bv9781767[24] x0) 
                        (bvadd (bvmul bv12774770[24] x1) 
                        (bvadd (bvmul bv3276880[24] x2) 
                        (bvadd (bvmul bv13008095[24] x8) 
                        (bvadd (bvmul bv3620125[24] x11) (bvmul bv9403552[24] x19))))))
	              bv9092345[24])
         (and (bvule      (bvadd (bvmul bv15325086[24] x0) 
                        (bvadd (bvmul bv403118[24] x1) 
                        (bvadd (bvmul bv9526909[24] x2) 
                        (bvadd (bvmul bv6559882[24] x3) 
                        (bvadd (bvmul bv4972669[24] x7) 
                        (bvadd (bvmul bv188795[24] x8) 
                        (bvadd (bvmul bv4675260[24] x9) 
                        (bvadd (bvmul bv7769542[24] x12) 
                        (bvadd (bvmul bv2093685[24] x13) 
                        (bvadd (bvmul bv3214099[24] x14) (bvmul bv9859883[24] x16)))))))))))
	              bv10983025[24])
         (and (bvule      (bvadd (bvmul bv16528063[24] x2) 
                        (bvadd (bvmul bv10567217[24] x3) 
                        (bvadd (bvmul bv13190338[24] x6) 
                        (bvadd (bvmul bv1220625[24] x7) 
                        (bvadd (bvmul bv15800477[24] x9) 
                        (bvadd (bvmul bv14588378[24] x10) 
                        (bvadd (bvmul bv9215348[24] x14) 
                        (bvadd (bvmul bv2829709[24] x15) 
                        (bvadd (bvmul bv13288654[24] x16) 
                        (bvadd (bvmul bv13843046[24] x17) (bvmul bv8048857[24] x19)))))))))))
	              bv9895040[24])
         (and (bvule      (bvadd (bvmul bv11454613[24] x2) 
                        (bvadd (bvmul bv15956619[24] x3) 
                        (bvadd (bvmul bv9472960[24] x4) 
                        (bvadd (bvmul bv5971534[24] x5) 
                        (bvadd (bvmul bv450030[24] x6) 
                        (bvadd (bvmul bv9716849[24] x7) 
                        (bvadd (bvmul bv14221659[24] x8) 
                        (bvadd (bvmul bv327243[24] x9) 
                        (bvadd (bvmul bv9542591[24] x11) 
                        (bvadd (bvmul bv4554415[24] x13) 
                        (bvadd (bvmul bv11945576[24] x14) 
                        (bvadd (bvmul bv9669104[24] x17) 
                        (bvadd (bvmul bv10040515[24] x18) (bvmul bv4726737[24] x19))))))))))))))
	              bv4717914[24])
         (and (bvule      (bvadd (bvmul bv3906141[24] x0) 
                        (bvadd (bvmul bv6410816[24] x3) 
                        (bvadd (bvmul bv16725914[24] x4) 
                        (bvadd (bvmul bv3488541[24] x7) 
                        (bvadd (bvmul bv6513692[24] x9) 
                        (bvadd (bvmul bv3024113[24] x10) 
                        (bvadd (bvmul bv7578529[24] x12) 
                        (bvadd (bvmul bv9198776[24] x14) (bvmul bv14417556[24] x19)))))))))
	              bv7840298[24])
              (bvule      (bvadd (bvmul bv1218391[24] x2) 
                        (bvadd (bvmul bv7629207[24] x4) 
                        (bvadd (bvmul bv13673304[24] x6) 
                        (bvadd (bvmul bv14606823[24] x10) 
                        (bvadd (bvmul bv853722[24] x12) 
                        (bvadd (bvmul bv6227346[24] x13) 
                        (bvadd (bvmul bv4226769[24] x14) 
                        (bvadd (bvmul bv853812[24] x15) 
                        (bvadd (bvmul bv1790167[24] x16) (bvmul bv14628577[24] x18))))))))))
	              bv6436127[24])
	 )))))))))))))))))))))))))))))))))))))))

)
